4 
5  34 
6  04 19 34 41 49 57 
7  04 12 19 27 34 42 49 57 
8  04 12 19 27 34 42 49 57 
9  04 12 19 27 34 42 49 57 
10  04 12 19 27 34 42 49 57 
11  04 12 19 27 34 42 49 57 
12  04 12 19 27 34 42 49 57 
13  04 12 19 28 35 43 50 58 
14  05 13 20 28 35 43 50 58 
15  05 13 20 28 35 43 50 58 
16  05 13 20 28 35 43 50 58 
17  05 13 20 28 35 43 50 58 
18  05 13 20 28 35 43 50 58 
19  05 13 20 27 34 42 49 57 
20  04 12 19 27 34 42 49 
21  00 15 30 45 
22  00 15 29 44 55 
23  09 24 39 54 
0 
